
Gurobi 9.5.1 (linux64) logging started Tue Jun 21 03:26:58 2022

Set parameter LogFile to value "../results/logs/log_CA-CondMat_4_250_2022_06_21_01_26.log"
Gurobi Optimizer version 9.5.1 build v9.5.1rc2 (linux64)
Thread count: 8 physical cores, 8 logical processors, using up to 8 threads
Optimize a model with 11751 rows, 46266 columns and 53090 nonzeros
Model fingerprint: 0x7d61ed20
Variable types: 0 continuous, 46266 integer (46266 binary)
Coefficient statistics:
  Matrix range     [1e+00, 4e+00]
  Objective range  [1e+00, 1e+00]
  Bounds range     [1e+00, 1e+00]
  RHS range        [1e+00, 2e+02]
Found heuristic solution: objective 13464.000000
Presolve removed 10004 rows and 44376 columns
Presolve time: 0.06s
Presolved: 1747 rows, 1890 columns, 7071 nonzeros
Variable types: 0 continuous, 1890 integer (1699 binary)
Found heuristic solution: objective 13571.000000

Root relaxation: objective 1.399563e+04, 584 iterations, 0.00 seconds (0.00 work units)

    Nodes    |    Current Node    |     Objective Bounds      |     Work
 Expl Unexpl |  Obj  Depth IntInf | Incumbent    BestBd   Gap | It/Node Time

     0     0 13995.6302    0  220 13571.0000 13995.6302  3.13%     -    0s
H    0     0                    13904.000000 13995.6302  0.66%     -    0s
H    0     0                    13905.000000 13995.6302  0.65%     -    0s
H    0     0                    13908.000000 13995.6302  0.63%     -    0s
H    0     0                    13924.000000 13995.6302  0.51%     -    0s
H    0     0                    13932.000000 13994.0108  0.45%     -    0s
H    0     0                    13938.000000 13946.7342  0.06%     -    0s
     0     0 13945.5661    0   86 13938.0000 13945.5661  0.05%     -    0s
     0     0 13941.6634    0   76 13938.0000 13941.6634  0.03%     -    0s
     0     0 13941.6634    0   78 13938.0000 13941.6634  0.03%     -    0s
     0     0 13941.6634    0   78 13938.0000 13941.6634  0.03%     -    0s
     0     0 13941.6452    0   39 13938.0000 13941.6452  0.03%     -    0s
     0     0 13941.0661    0   30 13938.0000 13941.0661  0.02%     -    0s
     0     0 13940.8081    0   37 13938.0000 13940.8081  0.02%     -    0s
H    0     0                    13939.000000 13940.8081  0.01%     -    0s
     0     0     cutoff    0      13939.0000 13939.0000  0.00%     -    0s

Cutting planes:
  Gomory: 82
  Cover: 4
  Implied bound: 9
  MIR: 86
  StrongCG: 2
  GUB cover: 24
  Zero half: 6
  RLT: 12
  Relax-and-lift: 7

Explored 1 nodes (1106 simplex iterations) in 0.25 seconds (0.16 work units)
Thread count was 8 (of 8 available processors)

Solution count 9: 13939 13938 13932 ... 13464

Optimal solution found (tolerance 0.00e+00)
Best objective 1.393900000000e+04, best bound 1.393900000000e+04, gap 0.0000%
